100
1489
5
41
76
28
70
45
0 4
0 6
0 9
0 11
0 12
0 13
0 20
0 25
0 40
0 41
0 51
0 54
0 59
0 62
0 64
0 67
0 72
0 76
0 78
0 81
0 88
0 90
0 91
0 92
0 97
1 3
1 5
1 6
1 15
1 17
1 18
1 19
1 21
1 27
1 28
1 30
1 38
1 40
1 43
1 45
1 48
1 53
1 57
1 58
1 60
1 70
1 72
1 76
1 77
1 81
1 84
1 85
1 87
1 89
1 90
1 92
1 93
1 96
1 98
2 3
2 8
2 10
2 13
2 14
2 15
2 16
2 19
2 26
2 29
2 30
2 34
2 37
2 38
2 40
2 47
2 49
2 52
2 55
2 61
2 62
2 65
2 66
2 67
2 78
2 82
2 85
2 86
2 87
2 90
2 96
2 97
2 98
3 5
3 12
3 13
3 15
3 17
3 21
3 24
3 30
3 33
3 35
3 40
3 41
3 42
3 43
3 45
3 51
3 58
3 63
3 78
3 80
3 81
3 85
3 86
3 88
3 90
3 98
4 11
4 12
4 18
4 19
4 21
4 23
4 25
4 31
4 34
4 38
4 39
4 41
4 53
4 55
4 59
4 63
4 66
4 72
4 73
4 74
4 80
4 81
4 83
4 88
4 92
4 93
4 96
4 99
5 6
5 7
5 10
5 12
5 13
5 20
5 24
5 27
5 30
5 32
5 33
5 34
5 36
5 37
5 39
5 42
5 48
5 51
5 59
5 60
5 61
5 62
5 66
5 67
5 70
5 76
5 77
5 79
5 80
5 85
5 86
5 87
5 92
5 94
5 97
5 99
6 7
6 9
6 12
6 14
6 16
6 24
6 26
6 27
6 34
6 39
6 47
6 48
6 50
6 53
6 58
6 59
6 61
6 62
6 64
6 78
6 84
6 85
6 94
6 95
6 96
6 98
7 10
7 13
7 15
7 20
7 24
7 26
7 27
7 31
7 38
7 39
7 41
7 47
7 51
7 53
7 55
7 62
7 65
7 69
7 75
7 77
7 82
7 83
7 84
7 86
7 93
7 97
7 98
8 9
8 10
8 11
8 23
8 29
8 33
8 35
8 41
8 42
8 43
8 46
8 47
8 49
8 51
8 53
8 54
8 57
8 58
8 73
8 76
8 78
8 82
8 86
8 96
8 99
9 11
9 18
9 19
9 25
9 32
9 37
9 38
9 40
9 42
9 44
9 50
9 53
9 60
9 65
9 66
9 76
9 77
9 81
9 82
9 88
9 91
9 92
9 97
9 98
10 11
10 13
10 17
10 20
10 21
10 23
10 30
10 34
10 36
10 39
10 41
10 42
10 46
10 48
10 49
10 60
10 68
10 76
10 78
10 85
10 86
10 95
10 96
10 97
11 26
11 35
11 39
11 41
11 43
11 45
11 48
11 57
11 60
11 67
11 78
11 85
11 86
11 87
11 92
11 95
11 98
12 15
12 16
12 21
12 22
12 25
12 34
12 37
12 47
12 48
12 51
12 53
12 59
12 61
12 64
12 65
12 78
12 83
12 84
12 86
12 87
12 88
12 89
12 90
12 92
12 99
13 15
13 19
13 20
13 26
13 27
13 45
13 47
13 49
13 50
13 58
13 61
13 62
13 66
13 67
13 72
13 74
13 78
13 79
13 85
13 89
13 91
13 94
13 95
13 96
14 20
14 23
14 24
14 31
14 32
14 38
14 39
14 51
14 53
14 59
14 64
14 65
14 66
14 72
14 78
14 82
14 83
14 89
14 92
14 93
14 98
15 17
15 22
15 23
15 24
15 25
15 26
15 27
15 29
15 30
15 31
15 32
15 33
15 34
15 37
15 40
15 48
15 49
15 51
15 54
15 56
15 57
15 62
15 63
15 65
15 69
15 74
15 76
15 78
15 86
15 92
15 93
15 94
15 95
15 96
15 98
16 17
16 21
16 24
16 26
16 27
16 29
16 31
16 32
16 33
16 35
16 38
16 41
16 45
16 47
16 48
16 51
16 55
16 56
16 61
16 64
16 66
16 70
16 74
16 77
16 84
16 94
16 96
16 98
17 19
17 22
17 24
17 25
17 27
17 33
17 35
17 37
17 41
17 43
17 44
17 54
17 57
17 59
17 61
17 68
17 69
17 74
17 77
17 78
17 83
17 90
17 91
17 93
17 96
18 25
18 28
18 29
18 30
18 36
18 41
18 42
18 43
18 55
18 64
18 65
18 66
18 69
18 71
18 76
18 79
18 87
18 89
18 90
18 91
18 94
18 97
19 21
19 27
19 32
19 33
19 36
19 38
19 42
19 49
19 55
19 68
19 69
19 84
19 87
19 90
19 92
19 95
19 98
20 25
20 27
20 29
20 30
20 31
20 35
20 38
20 41
20 42
20 43
20 44
20 47
20 49
20 50
20 51
20 58
20 64
20 74
20 75
20 82
20 87
20 91
20 98
21 22
21 24
21 30
21 31
21 40
21 51
21 52
21 53
21 54
21 58
21 60
21 62
21 64
21 67
21 69
21 71
21 80
21 81
21 83
21 85
21 86
21 87
21 88
21 92
21 94
22 25
22 26
22 30
22 44
22 46
22 47
22 49
22 51
22 52
22 53
22 56
22 58
22 63
22 65
22 66
22 76
22 77
22 82
22 86
22 87
22 88
22 94
22 97
22 98
23 24
23 26
23 29
23 32
23 33
23 34
23 40
23 46
23 49
23 56
23 57
23 66
23 71
23 76
23 77
23 78
23 79
23 83
23 86
23 91
23 92
23 95
23 96
23 99
24 25
24 27
24 28
24 30
24 31
24 32
24 34
24 51
24 52
24 57
24 58
24 60
24 61
24 62
24 63
24 64
24 65
24 66
24 68
24 69
24 75
24 92
25 27
25 28
25 32
25 33
25 43
25 47
25 49
25 51
25 54
25 55
25 62
25 63
25 67
25 72
25 73
25 74
25 80
25 83
25 84
25 85
25 91
25 93
25 96
26 28
26 30
26 31
26 33
26 36
26 37
26 44
26 45
26 50
26 52
26 56
26 57
26 60
26 64
26 69
26 70
26 72
26 76
26 82
26 84
26 85
26 92
26 94
26 97
27 29
27 35
27 36
27 37
27 38
27 40
27 44
27 48
27 54
27 56
27 63
27 71
27 73
27 75
27 78
27 82
27 87
27 89
27 95
27 98
27 99
28 34
28 38
28 39
28 42
28 43
28 44
28 46
28 49
28 52
28 55
28 58
28 60
28 63
28 66
28 68
28 72
28 73
28 79
28 85
28 86
28 95
28 97
28 98
29 35
29 37
29 40
29 42
29 49
29 50
29 56
29 59
29 63
29 64
29 67
29 69
29 72
29 76
29 89
29 91
29 98
29 99
30 31
30 34
30 35
30 38
30 39
30 42
30 44
30 50
30 52
30 56
30 65
30 68
30 70
30 74
30 76
30 77
30 83
30 88
30 89
30 92
30 93
30 97
31 32
31 34
31 35
31 38
31 44
31 45
31 48
31 52
31 54
31 59
31 60
31 69
31 70
31 73
31 74
31 81
31 86
31 88
32 37
32 48
32 50
32 53
32 54
32 55
32 57
32 58
32 59
32 64
32 67
32 72
32 74
32 75
32 78
32 83
32 86
32 89
32 94
32 97
33 40
33 41
33 42
33 45
33 46
33 48
33 49
33 52
33 53
33 55
33 61
33 62
33 65
33 66
33 71
33 72
33 75
33 78
33 80
33 81
33 83
33 90
33 96
33 99
34 44
34 45
34 46
34 51
34 52
34 54
34 56
34 59
34 62
34 64
34 66
34 69
34 70
34 71
34 85
34 89
34 90
34 91
34 97
34 98
34 99
35 37
35 47
35 51
35 57
35 58
35 61
35 64
35 65
35 72
35 95
35 97
36 37
36 40
36 42
36 43
36 44
36 50
36 51
36 52
36 56
36 57
36 58
36 61
36 62
36 64
36 65
36 89
36 90
36 91
36 97
37 38
37 39
37 40
37 42
37 52
37 54
37 55
37 56
37 58
37 59
37 62
37 64
37 65
37 67
37 68
37 70
37 73
37 74
37 77
37 78
37 79
37 80
37 83
37 84
37 86
37 89
37 90
37 98
38 42
38 43
38 44
38 46
38 52
38 56
38 59
38 62
38 63
38 65
38 69
38 81
38 82
38 83
38 84
38 86
38 87
38 93
39 46
39 47
39 50
39 51
39 53
39 54
39 55
39 56
39 59
39 67
39 68
39 72
39 73
39 76
39 77
39 79
39 81
39 82
39 84
39 95
40 48
40 49
40 54
40 56
40 60
40 64
40 66
40 69
40 71
40 78
40 85
40 88
40 93
40 97
41 42
41 44
41 49
41 56
41 57
41 65
41 67
41 69
41 74
41 76
41 77
41 78
41 79
41 80
42 44
42 45
42 50
42 53
42 54
42 55
42 56
42 57
42 63
42 64
42 72
42 73
42 75
42 76
42 79
42 86
42 90
42 91
42 92
42 95
43 47
43 50
43 51
43 53
43 54
43 55
43 56
43 58
43 59
43 65
43 73
43 74
43 80
43 81
43 82
43 85
43 88
43 91
43 92
43 95
44 45
44 47
44 50
44 51
44 52
44 58
44 59
44 65
44 67
44 70
44 79
44 80
44 85
44 88
44 89
44 91
44 93
44 94
45 52
45 53
45 59
45 62
45 64
45 66
45 69
45 70
45 74
45 80
45 84
45 89
45 94
45 95
46 48
46 49
46 52
46 53
46 54
46 57
46 58
46 65
46 73
46 74
46 75
46 76
46 81
46 83
46 85
46 87
46 92
46 94
46 95
46 97
47 50
47 51
47 55
47 57
47 60
47 63
47 64
47 68
47 69
47 74
47 82
47 85
47 88
47 93
47 96
47 99
48 49
48 59
48 63
48 65
48 73
48 76
48 80
48 93
48 96
49 51
49 52
49 53
49 55
49 56
49 58
49 60
49 70
49 71
49 74
49 78
49 80
49 83
49 90
49 95
50 51
50 52
50 53
50 56
50 58
50 59
50 60
50 67
50 68
50 71
50 76
50 77
50 80
50 84
50 88
50 89
50 92
50 93
50 96
50 99
51 64
51 65
51 72
51 78
51 88
51 94
51 99
52 54
52 66
52 69
52 72
52 73
52 75
52 76
52 81
52 84
52 85
52 88
52 93
53 57
53 60
53 61
53 70
53 78
53 83
53 85
53 86
53 98
53 99
54 55
54 56
54 60
54 61
54 62
54 63
54 65
54 67
54 68
54 71
54 72
54 82
54 88
54 95
54 99
55 56
55 61
55 64
55 66
55 71
55 73
55 74
55 75
55 82
55 85
55 88
55 90
55 91
55 92
55 94
55 97
56 59
56 63
56 65
56 67
56 69
56 72
56 76
56 77
56 79
56 80
56 84
56 97
56 98
57 58
57 59
57 64
57 66
57 67
57 70
57 71
57 72
57 73
57 75
57 76
57 78
57 85
57 90
57 92
57 93
57 94
57 97
57 99
58 59
58 62
58 64
58 65
58 74
58 75
58 82
58 83
58 85
58 90
58 94
58 95
58 98
59 62
59 64
59 65
59 67
59 71
59 74
59 91
59 94
59 98
59 99
60 68
60 71
60 75
60 76
60 80
60 84
60 87
60 88
60 89
60 93
60 99
61 66
61 76
61 81
61 82
61 83
61 85
61 86
61 87
61 88
61 97
62 64
62 65
62 66
62 76
62 78
62 79
62 80
62 81
62 82
62 83
62 84
62 89
62 91
62 93
62 94
62 96
62 97
62 98
62 99
63 64
63 65
63 66
63 78
63 82
63 84
63 85
63 90
63 91
63 93
63 96
63 97
63 98
64 67
64 68
64 70
64 73
64 77
64 79
64 82
64 84
64 93
64 98
64 99
65 66
65 67
65 71
65 74
65 76
65 82
65 91
65 94
65 95
66 72
66 77
66 79
66 84
66 91
67 69
67 72
67 78
67 82
67 85
67 87
67 93
67 94
67 97
67 98
67 99
68 76
68 80
68 82
68 83
68 84
68 85
68 88
68 90
68 91
68 94
69 70
69 72
69 73
69 77
69 80
69 81
69 87
69 95
69 97
69 99
70 71
70 72
70 73
70 74
70 76
70 78
70 81
70 86
70 93
70 96
70 98
71 74
71 86
71 88
71 91
71 92
71 93
71 94
72 76
72 80
72 82
72 83
72 84
72 92
72 97
72 99
73 76
73 77
73 80
73 81
73 83
73 85
73 86
73 90
73 91
73 97
73 98
74 76
74 81
74 84
74 87
74 89
74 96
74 98
75 77
75 78
75 81
75 82
75 86
75 89
75 90
75 93
75 94
75 95
75 96
75 98
76 79
76 80
76 82
76 84
76 86
76 98
76 99
77 81
77 83
77 84
77 94
77 99
78 81
78 88
78 89
78 91
78 94
78 96
79 82
79 83
79 87
79 93
79 94
79 98
80 81
80 83
80 87
80 90
80 96
80 97
81 85
81 92
82 90
82 91
83 84
83 85
83 92
83 94
83 96
84 87
84 91
84 95
84 98
85 88
85 90
85 92
85 93
85 96
85 97
86 87
86 88
86 90
86 93
86 94
86 97
87 91
87 93
87 97
88 93
88 95
88 96
89 96
89 98
89 99
90 95
90 97
90 99
91 93
91 94
91 97
91 99
92 98
92 99
93 95
93 97
94 99
95 96
96 97
97 99
78 97 16 21 57 51 86 98 17 24 55 81 64 99 72 46 82 38 60 76
13 11 1 58 92 39 30 27 75 83 52 74 49 31 88 25 45 33 29 26
48 14 41 12 32 56 66 42 50 0 73 68 10 23 93 18 3 94 65 47
28 37 9 95 59 79 5 4 61 80 84 35 40 36 43 6 77 67 8 89
44 85 96 34 91 54 90 62 53 70 22 63 19 69 71 20 15 7 87 2
